33D32945 STP File, STP Format Version 1.0

SECTION Comment
Name "i640-203-PCST"
Creator "Indaco Biazzo" 
Remark "derived from Incidence graph by Cees Duin"
END

SECTION Graph
Nodes 640
Edges 960
E 1 101 200.000000
E 1 200 195.000000
E 1 211 208.000000
E 1 321 202.000000
E 1 540 194.000000
E 1 549 208.000000
E 1 635 199.000000
E 2 44 299.000000
E 2 324 202.000000
E 3 6 301.000000
E 3 531 194.000000
E 4 151 204.000000
E 4 531 199.000000
E 5 102 200.000000
E 5 506 206.000000
E 6 41 302.000000
E 6 74 202.000000
E 6 142 192.000000
E 6 186 185.000000
E 6 233 195.000000
E 6 248 200.000000
E 6 331 203.000000
E 6 410 196.000000
E 6 541 197.000000
E 6 549 202.000000
E 7 19 289.000000
E 7 143 196.000000
E 7 178 196.000000
E 7 250 199.000000
E 7 287 198.000000
E 7 390 194.000000
E 7 464 209.000000
E 7 523 210.000000
E 7 547 201.000000
E 8 20 300.000000
E 8 179 205.000000
E 9 71 205.000000
E 9 248 199.000000
E 9 432 194.000000
E 10 207 198.000000
E 10 381 196.000000
E 11 57 200.000000
E 11 164 198.000000
E 11 201 200.000000
E 11 217 196.000000
E 11 409 206.000000
E 12 149 196.000000
E 12 226 200.000000
E 12 364 201.000000
E 12 529 198.000000
E 13 108 199.000000
E 13 327 199.000000
E 13 481 201.000000
E 13 488 197.000000
E 14 280 187.000000
E 14 374 195.000000
E 14 459 202.000000
E 15 618 200.000000
E 16 122 206.000000
E 16 241 203.000000
E 16 418 198.000000
E 16 467 204.000000
E 16 508 195.000000
E 16 528 195.000000
E 16 620 208.000000
E 17 197 207.000000
E 17 269 194.000000
E 17 599 204.000000
E 18 43 300.000000
E 18 183 197.000000
E 18 395 208.000000
E 19 245 201.000000
E 19 470 199.000000
E 19 539 200.000000
E 19 604 205.000000
E 20 34 296.000000
E 20 125 201.000000
E 20 263 200.000000
E 21 410 204.000000
E 21 589 200.000000
E 21 632 204.000000
E 22 114 193.000000
E 23 41 299.000000
E 23 293 203.000000
E 23 431 192.000000
E 23 528 195.000000
E 24 75 197.000000
E 24 466 189.000000
E 25 542 203.000000
E 25 622 202.000000
E 26 394 198.000000
E 26 533 198.000000
E 27 174 198.000000
E 27 605 200.000000
E 28 58 187.000000
E 28 428 202.000000
E 28 520 198.000000
E 28 591 193.000000
E 29 130 196.000000
E 30 450 196.000000
E 30 527 206.000000
E 31 526 197.000000
E 32 177 199.000000
E 32 601 201.000000
E 33 40 291.000000
E 33 500 200.000000
E 34 83 208.000000
E 34 174 210.000000
E 34 441 195.000000
E 35 612 201.000000
E 36 353 202.000000
E 36 445 202.000000
E 36 590 201.000000
E 37 334 192.000000
E 37 416 195.000000
E 37 515 192.000000
E 37 563 196.000000
E 38 94 195.000000
E 38 203 197.000000
E 38 399 203.000000
E 39 488 203.000000
E 39 629 204.000000
E 40 121 196.000000
E 40 198 206.000000
E 40 361 202.000000
E 41 134 196.000000
E 41 623 195.000000
E 42 390 195.000000
E 42 484 198.000000
E 42 504 193.000000
E 42 507 197.000000
E 43 137 206.000000
E 43 285 201.000000
E 44 229 199.000000
E 44 343 198.000000
E 44 576 199.000000
E 44 596 196.000000
E 45 532 190.000000
E 46 519 208.000000
E 46 583 193.000000
E 47 559 199.000000
E 47 575 202.000000
E 47 600 199.000000
E 48 65 202.000000
E 48 145 194.000000
E 48 286 205.000000
E 48 355 207.000000
E 48 460 189.000000
E 48 516 197.000000
E 48 529 207.000000
E 49 316 204.000000
E 49 549 210.000000
E 49 617 200.000000
E 50 230 209.000000
E 50 268 200.000000
E 50 353 197.000000
E 50 399 196.000000
E 50 426 200.000000
E 51 222 99.000000
E 51 309 92.000000
E 52 260 100.000000
E 52 351 98.000000
E 52 547 95.000000
E 52 594 99.000000
E 53 400 102.000000
E 53 553 102.000000
E 54 156 93.000000
E 54 328 106.000000
E 54 557 100.000000
E 54 615 96.000000
E 55 113 93.000000
E 55 237 105.000000
E 55 254 94.000000
E 55 305 103.000000
E 56 605 101.000000
E 57 148 93.000000
E 57 399 89.000000
E 57 590 97.000000
E 59 164 99.000000
E 59 441 102.000000
E 59 482 91.000000
E 60 433 93.000000
E 60 458 94.000000
E 61 109 102.000000
E 61 175 102.000000
E 61 258 103.000000
E 61 260 105.000000
E 61 506 100.000000
E 61 609 102.000000
E 62 149 102.000000
E 62 193 106.000000
E 62 315 104.000000
E 62 316 95.000000
E 62 344 98.000000
E 62 428 93.000000
E 62 480 98.000000
E 62 524 106.000000
E 63 488 101.000000
E 64 75 97.000000
E 64 218 98.000000
E 65 372 106.000000
E 65 615 99.000000
E 66 430 96.000000
E 67 381 101.000000
E 68 77 88.000000
E 68 137 94.000000
E 68 182 93.000000
E 68 210 94.000000
E 68 298 100.000000
E 68 441 88.000000
E 68 601 104.000000
E 68 605 100.000000
E 68 626 97.000000
E 69 598 95.000000
E 70 256 101.000000
E 71 126 98.000000
E 71 195 99.000000
E 72 159 106.000000
E 72 444 110.000000
E 73 452 108.000000
E 74 380 103.000000
E 75 119 101.000000
E 76 123 103.000000
E 76 281 108.000000
E 76 625 115.000000
E 77 152 108.000000
E 77 291 97.000000
E 77 423 95.000000
E 77 560 95.000000
E 78 208 103.000000
E 78 410 103.000000
E 79 315 97.000000
E 79 453 100.000000
E 79 491 104.000000
E 79 572 91.000000
E 80 201 106.000000
E 80 348 101.000000
E 80 445 100.000000
E 80 539 88.000000
E 81 199 108.000000
E 81 500 99.000000
E 82 340 97.000000
E 82 549 102.000000
E 82 607 105.000000
E 83 308 105.000000
E 83 344 109.000000
E 83 420 102.000000
E 83 541 105.000000
E 83 555 100.000000
E 83 576 98.000000
E 84 214 91.000000
E 84 237 97.000000
E 85 178 96.000000
E 85 199 109.000000
E 85 419 103.000000
E 85 451 102.000000
E 85 517 95.000000
E 85 639 100.000000
E 86 371 91.000000
E 86 394 107.000000
E 86 536 96.000000
E 87 263 107.000000
E 87 430 97.000000
E 87 452 104.000000
E 88 389 92.000000
E 89 168 95.000000
E 89 504 95.000000
E 89 597 97.000000
E 90 136 97.000000
E 90 193 101.000000
E 90 403 96.000000
E 91 215 100.000000
E 91 301 102.000000
E 92 461 101.000000
E 93 188 108.000000
E 93 386 101.000000
E 93 613 93.000000
E 94 151 100.000000
E 94 317 97.000000
E 94 428 97.000000
E 95 273 103.000000
E 95 514 102.000000
E 96 130 102.000000
E 96 370 101.000000
E 96 403 109.000000
E 97 154 111.000000
E 97 232 101.000000
E 97 384 103.000000
E 98 354 101.000000
E 98 446 101.000000
E 99 309 97.000000
E 99 460 96.000000
E 99 496 98.000000
E 100 156 101.000000
E 100 173 105.000000
E 100 200 102.000000
E 100 505 92.000000
E 100 540 102.000000
E 101 175 96.000000
E 102 332 99.000000
E 102 601 91.000000
E 102 609 98.000000
E 102 632 101.000000
E 103 220 105.000000
E 103 244 87.000000
E 103 375 105.000000
E 104 251 107.000000
E 104 329 95.000000
E 104 537 95.000000
E 105 159 102.000000
E 105 492 96.000000
E 106 280 92.000000
E 107 125 109.000000
E 107 445 103.000000
E 107 489 106.000000
E 107 494 100.000000
E 108 136 103.000000
E 108 176 98.000000
E 109 164 102.000000
E 109 285 99.000000
E 109 330 98.000000
E 110 226 105.000000
E 110 500 93.000000
E 110 535 100.000000
E 110 624 105.000000
E 111 163 107.000000
E 112 180 105.000000
E 112 279 105.000000
E 112 539 97.000000
E 112 542 103.000000
E 113 335 97.000000
E 113 407 95.000000
E 113 536 98.000000
E 113 600 100.000000
E 114 367 109.000000
E 115 216 93.000000
E 115 324 91.000000
E 115 503 98.000000
E 116 186 100.000000
E 116 565 95.000000
E 117 272 99.000000
E 117 428 105.000000
E 117 507 104.000000
E 117 521 100.000000
E 118 443 106.000000
E 119 193 97.000000
E 120 269 94.000000
E 120 421 91.000000
E 120 457 105.000000
E 120 487 94.000000
E 121 207 96.000000
E 122 318 91.000000
E 122 362 92.000000
E 122 629 92.000000
E 124 389 97.000000
E 125 149 96.000000
E 125 197 94.000000
E 125 395 96.000000
E 125 611 104.000000
E 126 523 102.000000
E 126 616 99.000000
E 127 428 103.000000
E 127 559 100.000000
E 127 637 93.000000
E 128 346 101.000000
E 129 516 101.000000
E 129 560 97.000000
E 130 353 110.000000
E 131 193 107.000000
E 131 224 108.000000
E 131 449 102.000000
E 132 139 102.000000
E 132 209 103.000000
E 132 222 101.000000
E 132 616 105.000000
E 133 490 87.000000
E 133 635 97.000000
E 134 304 98.000000
E 134 321 102.000000
E 135 420 92.000000
E 136 221 100.000000
E 136 531 98.000000
E 137 275 94.000000
E 137 358 105.000000
E 137 426 98.000000
E 137 443 101.000000
E 137 496 103.000000
E 137 594 111.000000
E 138 406 96.000000
E 138 475 100.000000
E 139 192 95.000000
E 139 231 99.000000
E 139 253 98.000000
E 139 465 102.000000
E 140 533 100.000000
E 141 428 99.000000
E 141 559 113.000000
E 141 570 102.000000
E 142 437 109.000000
E 142 613 97.000000
E 143 230 96.000000
E 143 355 96.000000
E 144 254 104.000000
E 144 426 99.000000
E 145 242 97.000000
E 145 350 100.000000
E 146 279 93.000000
E 146 487 93.000000
E 146 568 97.000000
E 147 267 102.000000
E 147 289 98.000000
E 148 316 115.000000
E 148 550 93.000000
E 149 457 94.000000
E 150 168 96.000000
E 150 276 98.000000
E 150 432 104.000000
E 150 603 107.000000
E 151 227 105.000000
E 152 366 99.000000
E 153 626 100.000000
E 154 527 100.000000
E 155 441 100.000000
E 155 533 103.000000
E 156 212 100.000000
E 156 391 102.000000
E 157 204 109.000000
E 157 444 96.000000
E 157 485 96.000000
E 158 194 104.000000
E 158 382 100.000000
E 159 428 101.000000
E 159 539 98.000000
E 159 568 100.000000
E 159 603 99.000000
E 160 586 95.000000
E 161 471 91.000000
E 161 496 100.000000
E 161 606 105.000000
E 162 544 103.000000
E 162 635 91.000000
E 163 378 106.000000
E 163 402 101.000000
E 163 531 91.000000
E 164 250 100.000000
E 165 591 94.000000
E 166 454 101.000000
E 166 635 97.000000
E 167 549 107.000000
E 168 176 94.000000
E 168 214 99.000000
E 168 264 89.000000
E 169 357 99.000000
E 169 385 109.000000
E 169 392 90.000000
E 169 606 113.000000
E 170 435 98.000000
E 171 202 91.000000
E 171 206 99.000000
E 171 372 97.000000
E 172 181 104.000000
E 173 274 101.000000
E 173 464 103.000000
E 174 529 97.000000
E 174 566 94.000000
E 174 593 108.000000
E 175 196 103.000000
E 175 227 102.000000
E 175 235 104.000000
E 175 333 94.000000
E 175 478 95.000000
E 175 518 104.000000
E 175 585 91.000000
E 175 612 95.000000
E 176 510 93.000000
E 177 434 97.000000
E 177 469 102.000000
E 178 214 99.000000
E 179 289 98.000000
E 180 596 103.000000
E 181 269 97.000000
E 181 391 93.000000
E 181 551 100.000000
E 182 348 97.000000
E 182 389 102.000000
E 182 431 98.000000
E 182 433 94.000000
E 182 509 101.000000
E 182 525 94.000000
E 182 619 104.000000
E 183 192 99.000000
E 184 542 102.000000
E 185 230 97.000000
E 185 564 99.000000
E 185 622 105.000000
E 185 628 101.000000
E 187 291 98.000000
E 187 594 101.000000
E 188 321 97.000000
E 188 530 97.000000
E 188 544 106.000000
E 189 191 87.000000
E 189 419 100.000000
E 190 236 102.000000
E 190 455 95.000000
E 191 251 105.000000
E 191 420 98.000000
E 191 558 88.000000
E 192 195 102.000000
E 192 200 96.000000
E 192 386 96.000000
E 192 429 100.000000
E 192 458 94.000000
E 193 217 94.000000
E 193 451 101.000000
E 193 638 106.000000
E 194 342 103.000000
E 194 466 93.000000
E 194 579 102.000000
E 197 208 104.000000
E 197 502 97.000000
E 197 617 95.000000
E 198 384 97.000000
E 199 215 102.000000
E 199 444 104.000000
E 200 320 105.000000
E 200 333 97.000000
E 200 427 103.000000
E 200 490 107.000000
E 200 577 91.000000
E 200 586 95.000000
E 200 592 92.000000
E 200 633 99.000000
E 201 477 96.000000
E 202 368 106.000000
E 202 494 98.000000
E 202 598 93.000000
E 203 266 99.000000
E 203 557 106.000000
E 204 501 98.000000
E 205 523 98.000000
E 207 346 102.000000
E 207 480 96.000000
E 208 351 97.000000
E 208 437 102.000000
E 208 499 101.000000
E 209 412 96.000000
E 212 323 101.000000
E 212 630 101.000000
E 213 480 104.000000
E 214 623 103.000000
E 215 267 94.000000
E 216 388 105.000000
E 216 419 93.000000
E 217 430 99.000000
E 217 497 93.000000
E 217 620 106.000000
E 218 397 90.000000
E 218 398 97.000000
E 219 229 95.000000
E 219 547 89.000000
E 219 605 99.000000
E 219 632 103.000000
E 220 284 96.000000
E 220 374 103.000000
E 220 418 99.000000
E 220 458 90.000000
E 221 239 96.000000
E 221 602 106.000000
E 222 225 99.000000
E 222 277 102.000000
E 222 494 100.000000
E 223 232 103.000000
E 223 426 101.000000
E 224 580 99.000000
E 226 412 104.000000
E 227 407 101.000000
E 228 235 95.000000
E 228 631 96.000000
E 229 239 100.000000
E 229 260 107.000000
E 230 623 103.000000
E 231 346 100.000000
E 232 288 100.000000
E 232 424 103.000000
E 233 359 98.000000
E 233 393 94.000000
E 234 521 100.000000
E 236 240 94.000000
E 236 359 102.000000
E 236 487 104.000000
E 238 382 98.000000
E 238 472 99.000000
E 239 447 109.000000
E 240 273 98.000000
E 240 283 103.000000
E 241 253 105.000000
E 241 514 106.000000
E 242 331 96.000000
E 243 492 105.000000
E 243 550 98.000000
E 243 553 97.000000
E 244 358 97.000000
E 245 275 109.000000
E 245 395 102.000000
E 245 409 94.000000
E 246 347 98.000000
E 247 576 99.000000
E 247 585 104.000000
E 248 528 96.000000
E 248 571 101.000000
E 249 558 96.000000
E 250 284 101.000000
E 250 398 94.000000
E 250 399 93.000000
E 251 335 98.000000
E 251 442 92.000000
E 251 605 96.000000
E 252 349 100.000000
E 252 364 107.000000
E 253 445 91.000000
E 253 630 103.000000
E 254 456 101.000000
E 254 512 103.000000
E 254 515 106.000000
E 255 454 98.000000
E 256 412 101.000000
E 257 276 102.000000
E 258 279 98.000000
E 258 384 91.000000
E 258 636 104.000000
E 259 425 95.000000
E 260 326 102.000000
E 260 513 106.000000
E 260 531 96.000000
E 260 548 101.000000
E 261 501 103.000000
E 261 640 104.000000
E 262 330 101.000000
E 262 558 92.000000
E 263 435 102.000000
E 263 486 102.000000
E 263 616 98.000000
E 264 267 94.000000
E 264 288 97.000000
E 265 381 101.000000
E 265 473 92.000000
E 266 296 96.000000
E 266 331 100.000000
E 266 430 91.000000
E 266 542 102.000000
E 268 595 105.000000
E 269 309 89.000000
E 269 347 99.000000
E 269 519 94.000000
E 270 280 93.000000
E 270 529 96.000000
E 270 554 96.000000
E 271 592 93.000000
E 272 335 102.000000
E 272 404 98.000000
E 273 377 104.000000
E 273 480 95.000000
E 275 315 102.000000
E 275 366 107.000000
E 275 509 99.000000
E 275 560 96.000000
E 275 639 104.000000
E 276 443 104.000000
E 277 593 97.000000
E 278 367 116.000000
E 278 571 91.000000
E 279 435 104.000000
E 280 480 99.000000
E 281 543 100.000000
E 282 396 101.000000
E 282 476 105.000000
E 282 559 87.000000
E 284 551 100.000000
E 286 500 102.000000
E 287 487 103.000000
E 287 521 107.000000
E 288 571 104.000000
E 288 628 102.000000
E 290 307 101.000000
E 291 384 108.000000
E 292 306 87.000000
E 294 447 95.000000
E 294 498 106.000000
E 295 380 99.000000
E 296 367 99.000000
E 296 519 98.000000
E 296 612 104.000000
E 296 627 102.000000
E 296 629 99.000000
E 297 482 104.000000
E 298 546 99.000000
E 298 553 101.000000
E 299 393 109.000000
E 300 301 101.000000
E 300 333 96.000000
E 300 582 97.000000
E 301 498 101.000000
E 302 375 111.000000
E 303 507 101.000000
E 304 404 104.000000
E 304 440 97.000000
E 304 545 100.000000
E 305 614 103.000000
E 306 480 102.000000
E 307 440 100.000000
E 307 570 102.000000
E 309 515 99.000000
E 309 565 103.000000
E 310 311 105.000000
E 311 601 97.000000
E 311 615 95.000000
E 312 315 97.000000
E 312 440 100.000000
E 312 589 102.000000
E 313 396 96.000000
E 314 547 97.000000
E 314 553 96.000000
E 315 333 97.000000
E 315 432 100.000000
E 315 462 100.000000
E 315 551 93.000000
E 315 556 96.000000
E 316 376 107.000000
E 316 450 110.000000
E 319 608 104.000000
E 319 618 105.000000
E 320 436 102.000000
E 321 614 94.000000
E 322 413 105.000000
E 322 557 105.000000
E 323 544 98.000000
E 325 328 100.000000
E 325 622 94.000000
E 326 568 91.000000
E 326 613 98.000000
E 327 431 99.000000
E 327 535 94.000000
E 328 377 103.000000
E 329 338 107.000000
E 329 440 103.000000
E 329 464 104.000000
E 329 608 100.000000
E 331 477 103.000000
E 331 500 102.000000
E 332 433 94.000000
E 333 372 101.000000
E 334 358 96.000000
E 334 501 93.000000
E 334 506 103.000000
E 336 420 104.000000
E 337 483 103.000000
E 337 582 102.000000
E 338 446 97.000000
E 338 474 91.000000
E 338 538 96.000000
E 339 430 102.000000
E 340 485 101.000000
E 341 429 102.000000
E 341 618 100.000000
E 342 345 100.000000
E 342 552 94.000000
E 342 571 105.000000
E 344 581 97.000000
E 344 620 93.000000
E 345 414 104.000000
E 346 438 102.000000
E 346 601 100.000000
E 346 608 99.000000
E 348 563 106.000000
E 350 421 102.000000
E 351 623 93.000000
E 352 626 99.000000
E 354 440 100.000000
E 355 378 101.000000
E 356 527 105.000000
E 356 618 97.000000
E 357 482 102.000000
E 357 593 95.000000
E 358 395 99.000000
E 358 622 100.000000
E 360 453 94.000000
E 362 621 95.000000
E 363 578 99.000000
E 364 421 103.000000
E 365 385 101.000000
E 366 605 102.000000
E 366 629 99.000000
E 367 433 95.000000
E 367 559 102.000000
E 367 615 97.000000
E 368 387 96.000000
E 368 487 97.000000
E 369 449 98.000000
E 371 542 101.000000
E 371 548 93.000000
E 372 467 99.000000
E 373 437 97.000000
E 373 521 107.000000
E 374 416 95.000000
E 375 630 99.000000
E 376 472 95.000000
E 378 403 100.000000
E 379 574 104.000000
E 380 518 106.000000
E 380 619 105.000000
E 381 503 99.000000
E 382 408 85.000000
E 382 424 102.000000
E 382 595 106.000000
E 383 609 92.000000
E 386 488 97.000000
E 386 583 111.000000
E 386 588 95.000000
E 386 606 97.000000
E 387 463 92.000000
E 389 614 111.000000
E 390 610 107.000000
E 395 633 87.000000
E 397 464 109.000000
E 397 533 95.000000
E 397 630 99.000000
E 400 547 92.000000
E 401 574 93.000000
E 402 419 101.000000
E 402 637 99.000000
E 404 522 92.000000
E 404 527 103.000000
E 405 477 99.000000
E 406 555 88.000000
E 407 430 108.000000
E 408 514 101.000000
E 408 515 103.000000
E 409 583 100.000000
E 410 473 99.000000
E 410 545 98.000000
E 410 618 97.000000
E 411 628 98.000000
E 412 619 99.000000
E 413 423 107.000000
E 413 591 115.000000
E 413 638 98.000000
E 414 492 99.000000
E 414 587 101.000000
E 414 614 105.000000
E 415 509 98.000000
E 416 481 102.000000
E 416 566 107.000000
E 417 474 97.000000
E 417 530 101.000000
E 419 420 100.000000
E 419 621 108.000000
E 422 581 102.000000
E 423 597 101.000000
E 424 451 98.000000
E 424 573 101.000000
E 424 609 107.000000
E 425 556 95.000000
E 428 494 99.000000
E 429 497 102.000000
E 429 569 93.000000
E 430 485 103.000000
E 432 486 107.000000
E 433 545 97.000000
E 433 593 93.000000
E 435 554 105.000000
E 435 628 104.000000
E 437 439 93.000000
E 437 515 103.000000
E 438 476 94.000000
E 440 617 95.000000
E 441 482 101.000000
E 441 619 97.000000
E 444 506 89.000000
E 444 634 109.000000
E 446 505 95.000000
E 446 574 100.000000
E 447 450 101.000000
E 448 466 98.000000
E 448 494 95.000000
E 450 640 102.000000
E 452 605 100.000000
E 453 454 95.000000
E 453 557 102.000000
E 454 579 101.000000
E 455 542 96.000000
E 457 496 99.000000
E 458 487 100.000000
E 459 543 104.000000
E 459 638 103.000000
E 460 600 102.000000
E 461 469 99.000000
E 461 598 99.000000
E 463 540 96.000000
E 464 524 101.000000
E 464 557 94.000000
E 467 574 105.000000
E 468 587 100.000000
E 471 495 97.000000
E 473 571 99.000000
E 473 594 103.000000
E 474 484 96.000000
E 474 511 104.000000
E 475 586 94.000000
E 476 534 100.000000
E 476 551 92.000000
E 476 562 104.000000
E 478 630 92.000000
E 479 557 98.000000
E 480 504 95.000000
E 480 507 96.000000
E 482 585 100.000000
E 482 598 97.000000
E 483 500 102.000000
E 484 493 97.000000
E 484 561 100.000000
E 492 551 107.000000
E 495 498 102.000000
E 498 577 104.000000
E 499 521 104.000000
E 501 545 96.000000
E 503 622 105.000000
E 506 614 96.000000
E 511 568 101.000000
E 511 580 105.000000
E 515 528 99.000000
E 515 613 100.000000
E 517 602 99.000000
E 520 562 98.000000
E 526 559 102.000000
E 527 608 95.000000
E 530 610 104.000000
E 531 633 99.000000
E 532 593 108.000000
E 539 548 97.000000
E 540 558 102.000000
E 540 631 101.000000
E 543 576 101.000000
E 545 602 104.000000
E 547 632 101.000000
E 552 626 98.000000
E 564 567 98.000000
E 567 601 107.000000
E 572 639 91.000000
E 578 592 101.000000
E 584 625 105.000000
E 584 631 90.000000
E 590 606 106.000000
E 592 599 102.000000
E 592 627 98.000000
E 592 637 106.000000
E 593 639 102.000000
E 600 637 109.000000
E 602 635 103.000000
E 625 628 94.000000
END

SECTION Terminals
Terminals 50
TP 1 484.000000
TP 2 188.000000
TP 3 1112.000000
TP 4 152.000000
TP 5 516.000000
TP 6 512.000000
TP 7 24.000000
TP 8 1156.000000
TP 9 60.000000
TP 10 248.000000
TP 11 968.000000
TP 12 856.000000
TP 13 532.000000
TP 14 172.000000
TP 15 12.000000
TP 16 628.000000
TP 17 844.000000
TP 18 1176.000000
TP 19 88.000000
TP 20 1072.000000
TP 21 972.000000
TP 22 1088.000000
TP 23 1128.000000
TP 24 488.000000
TP 25 832.000000
TP 26 740.000000
TP 27 1108.000000
TP 28 492.000000
TP 29 148.000000
TP 30 452.000000
TP 31 500.000000
TP 32 936.000000
TP 33 364.000000
TP 34 428.000000
TP 35 700.000000
TP 36 1140.000000
TP 37 176.000000
TP 38 692.000000
TP 39 588.000000
TP 40 84.000000
TP 41 44.000000
TP 42 316.000000
TP 43 584.000000
TP 44 864.000000
TP 45 1036.000000
TP 46 244.000000
TP 47 196.000000
TP 48 284.000000
TP 49 1192.000000
TP 50 544.000000
END

EOF
